NAME : gr120.13854.tour
COMMENT : Cost = 1549_13854
COMMENT : Found by LKH [Keld Helsgaun] Thu Nov 16 17:33:42 2017
TYPE : TOUR
DIMENSION : 129
TOUR_SECTION
1
27
97
109
93
82
129
116
70
26
47
48
102
101
114
73
57
83
67
37
62
106
112
110
89
71
8
60
16
123
40
7
103
9
11
115
21
88
2
128
45
14
75
46
20
107
43
79
58
91
68
65
69
113
17
98
42
41
56
74
120
124
30
125
119
5
63
39
95
64
4
34
121
61
105
72
38
23
51
13
49
118
50
44
87
28
127
24
54
36
104
99
10
35
84
6
55
90
96
111
126
3
53
77
12
80
122
29
32
92
78
94
86
22
85
18
108
100
33
52
25
19
117
31
66
81
15
59
76
-1
EOF
